NAME          IBELL3A
ROWS
  N OBJ.FUNC
  L R------1
  L R------2
  L R------3
  L R------4
  L R------5
  L R------6
  L R------7
  L R------8
  L R------9
  L R-----10
  L R-----11
  L R-----12
  L R-----13
  L R-----14
  L R-----15
  L R-----16
  L R-----17
  L R-----18
  L R-----19
  L R-----20
  L R-----21
  L R-----22
  L R-----23
  L R-----24
  L R-----25
  L R-----26
  L R-----27
  L R-----28
  L R-----29
  L R-----30
  L R-----31
  L R-----32
  L R-----33
  L R-----34
  L R-----35
  L R-----36
  L R-----37
  L R-----38
  L R-----39
  L R-----40
  L R-----41
  L R-----42
  L R-----43
  L R-----44
  L R-----45
  L R-----46
  L R-----47
  L R-----48
  L R-----49
  L R-----50
  L R-----51
  L R-----52
  L R-----53
  L R-----54
  L R-----55
  L R-----56
  L R-----57
  L R-----58
  L R-----59
  L R-----60
  L R-----61
  L R-----62
  L R-----63
  L R-----64
  L R-----65
  L R-----66
  L R-----67
  L R-----68
  L R-----69
  L R-----70
  L R-----71
  L R-----72
  L R-----73
  L R-----74
  L R-----75
  L R-----76
  L R-----77
  L R-----78
  L R-----79
  L R-----80
  L R-----81
  L R-----82
  L R-----83
  L R-----84
  L R-----85
  L R-----86
  L R-----87
  L R-----88
  L R-----89
  L R-----90
  L R-----91
  L R-----92
  L R-----93
  L R-----94
  L R-----95
  L R-----96
  L R-----97
  L R-----98
  L R-----99
  L R----100
  L R----101
  L R----102
  L R----103
  L R----104
COLUMNS
    MARK0000  'MARKER'                 'INTORG'
    C------1  OBJ.FUNC  0.430000E+05   R-----30  0.100000E+01
    C------1  R-----49  -.672000E+03
    C------2  OBJ.FUNC  0.100000E+05   R-----61  -.240000E+02
    C------3  OBJ.FUNC  0.430000E+05   R-----20  0.100000E+01
    C------3  R-----33  -.672000E+03
    C------4  R-----12  0.100000E+01   R----100  0.100000E+01
    C------5  OBJ.FUNC  0.430000E+05   R-----24  0.100000E+01
    C------5  R-----37  -.672000E+03
    C------6  OBJ.FUNC  0.100000E+05   R-----59  -.240000E+02
    C------7  OBJ.FUNC  0.430000E+05   R-----26  0.100000E+01
    C------7  R-----44  -.672000E+03
    C------8  R-----13  0.100000E+01   R-----14  -.100000E+01
    C------8  R----101  0.100000E+01
    C------9  OBJ.FUNC  0.100000E+05   R-----62  -.240000E+02
    C-----10  OBJ.FUNC  0.430000E+05   R-----21  0.100000E+01
    C-----10  R-----34  -.672000E+03
    C-----11  OBJ.FUNC  0.580000E+05   R-----22  0.100000E+01
    C-----11  R-----35  -.134400E+04
    C-----12  R------4  0.100000E+01   R------5  -.100000E+01
    C-----12  R------7  -.100000E+01   R------9  -.100000E+01
    C-----12  R-----22  -.200000E+02   R-----89  0.100000E+01
    C-----13  OBJ.FUNC  0.590000E+05   R-----26  0.100000E+01
    C-----13  R-----44  -.134400E+04
    C-----14  R------7  0.100000E+01   R------8  -.100000E+01
    C-----14  R-----25  -.200000E+02   R-----93  0.100000E+01
    C-----15  OBJ.FUNC  0.100000E+05   R-----60  -.240000E+02
    C-----16  OBJ.FUNC  0.590000E+05   R-----29  0.100000E+01
    C-----16  R-----48  -.134400E+04
    C-----17  OBJ.FUNC  0.580000E+05   R-----23  0.100000E+01
    C-----17  R-----36  -.134400E+04
    C-----18  OBJ.FUNC  0.580000E+05   R-----18  0.100000E+01
    C-----18  R-----31  -.134400E+04
    C-----19  OBJ.FUNC  0.590000E+05   R-----27  0.100000E+01
    C-----19  R-----45  -.134400E+04
    C-----20  OBJ.FUNC  0.100000E+05   R-----63  -.240000E+02
    C-----21  OBJ.FUNC  0.430000E+05   R-----22  0.100000E+01
    C-----21  R-----35  -.672000E+03
    C-----22  OBJ.FUNC  0.430000E+05   R-----18  0.100000E+01
    C-----22  R-----31  -.672000E+03
    C-----23  OBJ.FUNC  0.100000E+05   R-----51  -.240000E+02
    C-----24  OBJ.FUNC  0.590000E+05   R-----24  0.100000E+01
    C-----24  R-----37  -.134400E+04
    C-----25  OBJ.FUNC  0.430000E+05   R-----27  0.100000E+01
    C-----25  R-----45  -.672000E+03
    C-----26  OBJ.FUNC  0.430000E+05   R-----25  0.100000E+01
    C-----26  R-----40  -.672000E+03
    C-----27  R------8  0.100000E+01   R-----96  0.100000E+01
    C-----28  OBJ.FUNC  0.430000E+05   R-----23  0.100000E+01
    C-----28  R-----36  -.672000E+03
    C-----29  OBJ.FUNC  0.590000E+05   R-----30  0.100000E+01
    C-----29  R-----49  -.134400E+04
    C-----30  OBJ.FUNC  0.100000E+05   R-----64  -.240000E+02
    C-----31  R------5  0.100000E+01   R------6  -.100000E+01
    C-----31  R-----13  -.100000E+01   R-----16  -.100000E+01
    C-----31  R-----17  -.100000E+01   R-----23  -.200000E+02
    C-----31  R-----90  0.100000E+01
    C-----32  OBJ.FUNC  0.600000E+05   R-----28  0.100000E+01
    C-----32  R-----46  -.134400E+04
    C-----33  OBJ.FUNC  0.590000E+05   R-----25  0.100000E+01
    C-----33  R-----40  -.134400E+04
    C-----34  OBJ.FUNC  0.100000E+05   R-----52  -.240000E+02
    C-----35  OBJ.FUNC  0.100000E+05   R-----65  -.240000E+02
    C-----36  OBJ.FUNC  0.580000E+05   R-----19  0.100000E+01
    C-----36  R-----32  -.134400E+04
    C-----37  R------1  -.100000E+01   R-----18  -.200000E+02
    C-----37  R-----85  0.100000E+01
    C-----38  R------9  0.100000E+01   R-----10  -.100000E+01
    C-----38  R-----26  -.200000E+02   R-----97  0.100000E+01
    C-----39  OBJ.FUNC  0.100000E+05   R-----53  -.240000E+02
    C-----40  R-----14  0.100000E+01   R-----29  -.200000E+02
    C-----40  R----102  0.100000E+01
    C-----41  OBJ.FUNC  0.440000E+05   R-----28  0.100000E+01
    C-----41  R-----46  -.672000E+03
    C-----42  R------1  0.100000E+01   R------2  -.100000E+01
    C-----42  R-----19  -.200000E+02   R-----86  0.100000E+01
    C-----43  R-----10  0.100000E+01   R-----11  -.100000E+01
    C-----43  R-----27  -.200000E+02   R-----98  0.100000E+01
    C-----44  OBJ.FUNC  0.100000E+05   R-----54  -.240000E+02
    C-----45  R-----15  0.100000E+01   R-----30  -.200000E+02
    C-----45  R----103  0.100000E+01
    C-----46  R------6  0.100000E+01   R-----15  -.100000E+01
    C-----46  R-----24  -.200000E+02   R-----91  0.100000E+01
    C-----47  R------2  0.100000E+01   R------3  -.100000E+01
    C-----47  R-----20  -.200000E+02   R-----87  0.100000E+01
    C-----48  R-----11  0.100000E+01   R-----12  -.100000E+01
    C-----48  R-----28  -.200000E+02   R-----99  0.100000E+01
    C-----49  OBJ.FUNC  0.100000E+05   R-----55  -.240000E+02
    C-----50  R-----16  0.100000E+01   R----104  0.100000E+01
    C-----51  OBJ.FUNC  0.580000E+05   R-----20  0.100000E+01
    C-----51  R-----33  -.134400E+04
    C-----52  R------3  0.100000E+01   R------4  -.100000E+01
    C-----52  R-----21  -.200000E+02   R-----88  0.100000E+01
    C-----53  OBJ.FUNC  0.100000E+05   R-----58  -.240000E+02
    C-----54  OBJ.FUNC  0.100000E+05   R-----56  -.240000E+02
    C-----55  R-----17  0.100000E+01
    C-----56  OBJ.FUNC  0.580000E+05   R-----21  0.100000E+01
    C-----56  R-----34  -.134400E+04
    C-----57  OBJ.FUNC  0.100000E+05   R-----57  -.240000E+02
    C-----58  OBJ.FUNC  0.430000E+05   R-----29  0.100000E+01
    C-----58  R-----48  -.672000E+03
    C-----59  OBJ.FUNC  0.100000E+05   R-----50  -.240000E+02
    C-----60  OBJ.FUNC  0.430000E+05   R-----19  0.100000E+01
    C-----60  R-----32  -.672000E+03
    MARK0001  'MARKER'                 'INTEND'
    C-----61  OBJ.FUNC  0.127750E+02   R-----66  -.100000E+01
    C-----61  R-----85  0.833000E-03
    C-----62  OBJ.FUNC  0.164250E+02   R-----66  0.100000E+01
    C-----62  R-----67  -.100000E+01   R-----86  0.833000E-03
    C-----63  OBJ.FUNC  0.182500E+02   R-----67  0.100000E+01
    C-----63  R-----68  -.100000E+01   R-----87  0.833000E-03
    C-----64  OBJ.FUNC  0.211700E+02   R-----68  0.100000E+01
    C-----64  R-----69  -.100000E+01   R-----88  0.833000E-03
    C-----65  OBJ.FUNC  0.189800E+02   R-----69  0.100000E+01
    C-----65  R-----70  -.100000E+01   R-----89  0.833000E-03
    C-----66  OBJ.FUNC  0.146000E+02   R-----70  0.100000E+01
    C-----66  R-----71  -.100000E+01   R-----90  0.833000E-03
    C-----67  OBJ.FUNC  0.365000E+02   R-----71  0.100000E+01
    C-----67  R-----72  -.100000E+01   R-----91  0.833000E-03
    C-----68  OBJ.FUNC  0.730000E+02   R-----72  0.100000E+01
    C-----68  R-----73  -.100000E+01   R-----92  0.833000E-03
    C-----69  OBJ.FUNC  0.730000E+02   R-----73  0.100000E+01
    C-----69  R-----74  -.100000E+01
    C-----70  OBJ.FUNC  0.182500E+02   R-----70  0.100000E+01
    C-----70  R-----75  -.100000E+01   R-----93  0.833000E-03
    C-----71  OBJ.FUNC  0.109500E+02   R-----75  0.100000E+01
    C-----71  R-----76  -.100000E+01   R-----94  0.833000E-03
    C-----72  OBJ.FUNC  0.219000E+02   R-----76  0.100000E+01
    C-----72  R-----77  -.100000E+01
    C-----73  OBJ.FUNC  0.511000E+02   R-----77  0.100000E+01
    C-----73  R-----78  -.100000E+01   R-----95  0.833000E-03
    C-----74  OBJ.FUNC  0.105850E+02   R-----75  0.100000E+01
    C-----74  R-----96  0.833000E-03
    C-----75  OBJ.FUNC  0.808475E+02   R-----70  0.100000E+01
    C-----75  R-----79  -.100000E+01   R-----97  0.833000E-03
    C-----76  OBJ.FUNC  0.885125E+02   R-----79  0.100000E+01
    C-----76  R-----80  -.100000E+01   R-----98  0.833000E-03
    C-----77  OBJ.FUNC  0.956300E+02   R-----80  0.100000E+01
    C-----77  R-----81  -.100000E+01   R-----99  0.833000E-03
    C-----78  OBJ.FUNC  0.255500E+02   R-----81  0.100000E+01
    C-----78  R----100  0.833000E-03
    C-----79  OBJ.FUNC  0.146000E+02   R-----71  0.100000E+01
    C-----79  R-----82  -.100000E+01   R----101  0.833000E-03
    C-----80  OBJ.FUNC  0.584000E+02   R-----82  0.100000E+01
    C-----80  R-----83  -.100000E+01   R----102  0.833000E-03
    C-----81  OBJ.FUNC  0.730000E+02   R-----72  0.100000E+01
    C-----81  R-----84  -.100000E+01   R----103  0.833000E-03
    C-----82  OBJ.FUNC  0.219000E+02   R-----71  0.100000E+01
    C-----82  R----104  0.833000E-03
    C-----83  OBJ.FUNC  0.730000E-01   R-----71  0.100000E+01
    C-----84  OBJ.FUNC  0.127750E+01   R-----31  -.100000E+01
    C-----84  R-----85  0.830000E-04
    C-----85  OBJ.FUNC  0.164250E+01   R-----31  0.100000E+01
    C-----85  R-----32  -.100000E+01   R-----86  0.830000E-04
    C-----86  OBJ.FUNC  0.182500E+01   R-----32  0.100000E+01
    C-----86  R-----33  -.100000E+01   R-----87  0.830000E-04
    C-----87  OBJ.FUNC  0.211700E+01   R-----33  0.100000E+01
    C-----87  R-----34  -.100000E+01   R-----88  0.830000E-04
    C-----88  OBJ.FUNC  0.189800E+01   R-----34  0.100000E+01
    C-----88  R-----35  -.100000E+01   R-----89  0.830000E-04
    C-----89  OBJ.FUNC  0.146000E+01   R-----35  0.100000E+01
    C-----89  R-----36  -.100000E+01   R-----90  0.830000E-04
    C-----90  OBJ.FUNC  0.365000E+01   R-----36  0.100000E+01
    C-----90  R-----37  -.100000E+01   R-----91  0.830000E-04
    C-----91  OBJ.FUNC  0.730000E+01   R-----37  0.100000E+01
    C-----91  R-----38  -.100000E+01   R-----92  0.830000E-04
    C-----92  OBJ.FUNC  0.730000E+01   R-----38  0.100000E+01
    C-----92  R-----39  -.100000E+01
    C-----93  OBJ.FUNC  0.182500E+01   R-----35  0.100000E+01
    C-----93  R-----40  -.100000E+01   R-----93  0.830000E-04
    C-----94  OBJ.FUNC  0.109500E+01   R-----40  0.100000E+01
    C-----94  R-----41  -.100000E+01   R-----94  0.830000E-04
    C-----95  OBJ.FUNC  0.219000E+01   R-----41  0.100000E+01
    C-----95  R-----42  -.100000E+01
    C-----96  OBJ.FUNC  0.511000E+01   R-----42  0.100000E+01
    C-----96  R-----43  -.100000E+01   R-----95  0.830000E-04
    C-----97  OBJ.FUNC  0.105850E+01   R-----40  0.100000E+01
    C-----97  R-----96  0.830000E-04
    C-----98  OBJ.FUNC  0.808475E+01   R-----35  0.100000E+01
    C-----98  R-----44  -.100000E+01   R-----97  0.830000E-04
    C-----99  OBJ.FUNC  0.885125E+01   R-----44  0.100000E+01
    C-----99  R-----45  -.100000E+01   R-----98  0.830000E-04
    C----100  OBJ.FUNC  0.956300E+01   R-----45  0.100000E+01
    C----100  R-----46  -.100000E+01   R-----99  0.830000E-04
    C----101  OBJ.FUNC  0.255500E+01   R-----46  0.100000E+01
    C----101  R----100  0.830000E-04
    C----102  OBJ.FUNC  0.146000E+01   R-----36  0.100000E+01
    C----102  R-----47  -.100000E+01   R----101  0.830000E-04
    C----103  OBJ.FUNC  0.584000E+01   R-----47  0.100000E+01
    C----103  R-----48  -.100000E+01   R----102  0.830000E-04
    C----104  OBJ.FUNC  0.730000E+01   R-----37  0.100000E+01
    C----104  R-----49  -.100000E+01   R----103  0.830000E-04
    C----105  OBJ.FUNC  0.219000E+01   R-----36  0.100000E+01
    C----105  R----104  0.830000E-04
    C----106  OBJ.FUNC  0.730000E-02   R-----36  0.100000E+01
    C----107  R-----31  0.100000E+01   R-----50  0.100000E+01
    C----107  R-----66  -.100000E+01
    C----108  R-----32  0.100000E+01   R-----51  0.100000E+01
    C----108  R-----67  -.100000E+01
    C----109  R-----33  0.100000E+01   R-----52  0.100000E+01
    C----109  R-----68  -.100000E+01
    C----110  R-----34  0.100000E+01   R-----53  0.100000E+01
    C----110  R-----69  -.100000E+01
    C----111  R-----35  0.100000E+01   R-----54  0.100000E+01
    C----111  R-----70  -.100000E+01
    C----112  R-----36  0.100000E+01   R-----55  0.100000E+01
    C----112  R-----71  -.100000E+01
    C----113  R-----37  0.100000E+01   R-----56  0.100000E+01
    C----113  R-----72  -.100000E+01
    C----114  R-----39  0.100000E+01   R-----57  0.100000E+01
    C----114  R-----74  -.100000E+01
    C----115  R-----40  0.100000E+01   R-----58  0.100000E+01
    C----115  R-----75  -.100000E+01
    C----116  R-----42  0.100000E+01   R-----59  0.100000E+01
    C----116  R-----77  -.100000E+01
    C----117  R-----43  0.100000E+01   R-----60  0.100000E+01
    C----117  R-----78  -.100000E+01
    C----118  R-----44  0.100000E+01   R-----61  0.100000E+01
    C----118  R-----79  -.100000E+01
    C----119  R-----45  0.100000E+01   R-----62  0.100000E+01
    C----119  R-----80  -.100000E+01
    C----120  R-----46  0.100000E+01   R-----63  0.100000E+01
    C----120  R-----81  -.100000E+01
    C----121  R-----48  0.100000E+01   R-----64  0.100000E+01
    C----121  R-----83  -.100000E+01
    C----122  R-----49  0.100000E+01   R-----65  0.100000E+01
    C----122  R-----84  -.100000E+01
RHS
    RHS       R-----66  -.100000E+03
    RHS       R-----67  -.500000E+02
    RHS       R-----68  -.200000E+03
    RHS       R-----69  -.100000E+02
    RHS       R-----72  -.150000E+03
    RHS       R-----73  -.100000E+02
    RHS       R-----74  -.500000E+03
    RHS       R-----76  -.500000E+02
    RHS       R-----77  -.160000E+03
    RHS       R-----78  -.100000E+03
    RHS       R-----79  -.100000E+03
    RHS       R-----80  -.150000E+03
    RHS       R-----81  -.100000E+02
    RHS       R-----83  -.600000E+03
    RHS       R-----84  -.200000E+03
    RHS       R-----85  0.200000E+01
    RHS       R-----86  0.100000E+01
    RHS       R-----87  0.200000E+01
    RHS       R-----88  0.100000E+01
    RHS       R-----89  0.100000E+01
    RHS       R-----90  0.130000E+02
    RHS       R-----91  0.200000E+01
    RHS       R-----92  0.100000E+01
    RHS       R-----93  0.130000E+02
    RHS       R-----94  0.100000E+01
    RHS       R-----95  0.200000E+01
    RHS       R-----96  0.200000E+01
    RHS       R-----97  0.200000E+01
    RHS       R-----98  0.200000E+01
    RHS       R-----99  0.200000E+01
    RHS       R----100  0.200000E+01
    RHS       R----101  0.100000E+01
    RHS       R----102  0.100000E+01
    RHS       R----103  0.200000E+01
    RHS       R----104  0.130000E+02
RANGES
BOUNDS
 UP BOUNDS    C------1  0.100000E+01
 UP BOUNDS    C------2  0.100000E+04
 UP BOUNDS    C------3  0.100000E+01
 UP BOUNDS    C------4  0.100000E+01
 UP BOUNDS    C------5  0.100000E+01
 UP BOUNDS    C------6  0.100000E+04
 UP BOUNDS    C------7  0.100000E+01
 UP BOUNDS    C------8  0.100000E+01
 UP BOUNDS    C------9  0.100000E+04
 UP BOUNDS    C-----10  0.100000E+01
 UP BOUNDS    C-----11  0.100000E+04
 UP BOUNDS    C-----12  0.100000E+01
 UP BOUNDS    C-----13  0.100000E+04
 UP BOUNDS    C-----14  0.100000E+01
 UP BOUNDS    C-----15  0.100000E+04
 UP BOUNDS    C-----16  0.100000E+04
 UP BOUNDS    C-----17  0.100000E+04
 UP BOUNDS    C-----18  0.100000E+04
 UP BOUNDS    C-----19  0.100000E+04
 UP BOUNDS    C-----20  0.100000E+04
 UP BOUNDS    C-----21  0.100000E+01
 UP BOUNDS    C-----22  0.100000E+01
 UP BOUNDS    C-----23  0.100000E+04
 UP BOUNDS    C-----24  0.100000E+04
 UP BOUNDS    C-----25  0.100000E+01
 UP BOUNDS    C-----26  0.100000E+01
 UP BOUNDS    C-----27  0.100000E+01
 UP BOUNDS    C-----28  0.100000E+01
 UP BOUNDS    C-----29  0.100000E+04
 UP BOUNDS    C-----30  0.100000E+04
 UP BOUNDS    C-----31  0.100000E+01
 UP BOUNDS    C-----32  0.100000E+04
 UP BOUNDS    C-----33  0.100000E+04
 UP BOUNDS    C-----34  0.100000E+04
 UP BOUNDS    C-----35  0.100000E+04
 UP BOUNDS    C-----36  0.100000E+04
 UP BOUNDS    C-----37  0.100000E+01
 UP BOUNDS    C-----38  0.100000E+01
 UP BOUNDS    C-----39  0.100000E+04
 UP BOUNDS    C-----40  0.100000E+01
 UP BOUNDS    C-----41  0.100000E+01
 UP BOUNDS    C-----42  0.100000E+01
 UP BOUNDS    C-----43  0.100000E+01
 UP BOUNDS    C-----44  0.100000E+04
 UP BOUNDS    C-----45  0.100000E+01
 UP BOUNDS    C-----46  0.100000E+01
 UP BOUNDS    C-----47  0.100000E+01
 UP BOUNDS    C-----48  0.100000E+01
 UP BOUNDS    C-----49  0.100000E+04
 UP BOUNDS    C-----50  0.100000E+01
 UP BOUNDS    C-----51  0.100000E+04
 UP BOUNDS    C-----52  0.100000E+01
 UP BOUNDS    C-----53  0.100000E+04
 UP BOUNDS    C-----54  0.100000E+04
 UP BOUNDS    C-----55  0.100000E+01
 UP BOUNDS    C-----56  0.100000E+04
 UP BOUNDS    C-----57  0.100000E+04
 UP BOUNDS    C-----58  0.100000E+01
 UP BOUNDS    C-----59  0.100000E+04
 UP BOUNDS    C-----60  0.100000E+01
 LO BOUNDS    C-----74  0.300000E+03
 LO BOUNDS    C-----78  0.200000E+02
 LO BOUNDS    C-----82  0.100000E+03
 LO BOUNDS    C-----83  0.500000E+02
QUADOBJ
    C------1  C------1  0.125912E+00
    C------1  C------2  0.101812E+00
    C------2  C------2  0.407247E+00
    C------2  C------3  0.239289E+00
    C------3  C------3  0.957156E+00
    C------3  C------4  0.678545E-02
    C------4  C------4  0.271418E+00
    C------4  C------5  0.166303E+00
    C------5  C------5  0.665212E+00
    C------5  C------6  0.264315E-01
    C------6  C------6  0.105726E+00
    C------6  C------7  0.239263E+00
    C------7  C------7  0.957052E+00
    C------7  C------8  0.831772E-01
    C------8  C------8  0.332709E+00
    C------8  C------9  0.143952E+00
    C------9  C------9  0.575807E+00
    C------9  C-----10  0.178527E+00
    C-----10  C-----10  0.714106E+00
    C-----10  C-----11  0.649403E-01
    C-----11  C-----11  0.259761E+00
    C-----11  C-----12  0.148051E+00
    C-----12  C-----12  0.592204E+00
    C-----12  C-----13  0.201487E+00
    C-----13  C-----13  0.805947E+00
    C-----13  C-----14  0.235506E+00
    C-----14  C-----14  0.942022E+00
    C-----14  C-----15  0.137883E+00
    C-----15  C-----15  0.551532E+00
    C-----15  C-----16  0.976710E-01
    C-----16  C-----16  0.390684E+00
    C-----16  C-----17  0.154782E+00
    C-----17  C-----17  0.619130E+00
    C-----17  C-----18  0.190075E+00
    C-----18  C-----18  0.760299E+00
    C-----18  C-----19  0.160129E+00
    C-----19  C-----19  0.640516E+00
    C-----19  C-----20  0.908812E-01
    C-----20  C-----20  0.363525E+00
    C-----20  C-----21  0.657838E-01
    C-----21  C-----21  0.263135E+00
    C-----21  C-----22  0.990017E-01
    C-----22  C-----22  0.396007E+00
    C-----22  C-----23  0.168549E-01
    C-----23  C-----23  0.674197E+00
    C-----23  C-----24  0.105050E-01
    C-----24  C-----24  0.420200E+00
    C-----24  C-----25  0.142937E-01
    C-----25  C-----25  0.571750E+00
    C-----25  C-----26  0.188594E-01
    C-----26  C-----26  0.754375E+00
    C-----26  C-----27  0.196937E+00
    C-----27  C-----27  0.787748E+00
    C-----27  C-----28  0.874010E-01
    C-----28  C-----28  0.349604E+00
    C-----28  C-----29  0.355005E-01
    C-----29  C-----29  0.142002E+00
    C-----29  C-----30  0.215872E-01
    C-----30  C-----30  0.863490E+00
    C-----30  C-----31  0.580118E-01
    C-----31  C-----31  0.312047E+00
    C-----31  C-----32  0.121683E+00
    C-----32  C-----32  0.486731E+00
    C-----32  C-----33  0.209452E+00
    C-----33  C-----33  0.837808E+00
    C-----33  C-----34  0.152596E+00
    C-----34  C-----34  0.610386E+00
    C-----34  C-----35  0.186809E+00
    C-----35  C-----35  0.747237E+00
    C-----35  C-----36  0.363815E-01
    C-----36  C-----36  0.145526E+00
    C-----36  C-----37  0.998340E-02
    C-----37  C-----37  0.399336E+00
    C-----37  C-----38  0.147541E+00
    C-----38  C-----38  0.590166E+00
    C-----38  C-----39  0.211544E+00
    C-----39  C-----39  0.846178E+00
    C-----39  C-----40  0.211464E+00
    C-----40  C-----40  0.845858E+00
    C-----40  C-----41  0.776225E-01
    C-----41  C-----41  0.310490E+00
    C-----41  C-----42  0.119531E+00
    C-----42  C-----42  0.478125E+00
    C-----42  C-----43  0.507732E-01
    C-----43  C-----43  0.203093E+00
    C-----43  C-----44  0.205807E+00
    C-----44  C-----44  0.823227E+00
    C-----44  C-----45  0.100177E+00
    C-----45  C-----45  0.400708E+00
    C-----45  C-----46  0.197072E+00
    C-----46  C-----46  0.788289E+00
    C-----46  C-----47  0.150920E+00
    C-----47  C-----47  0.603680E+00
    C-----47  C-----48  0.133085E+00
    C-----48  C-----48  0.532339E+00
    C-----48  C-----49  0.747845E-01
    C-----49  C-----49  0.299138E+00
    C-----49  C-----50  0.131160E+00
    C-----50  C-----50  0.524641E+00
    C-----50  C-----51  0.127434E+00
    C-----51  C-----51  0.509734E+00
    C-----51  C-----52  0.975710E-01
    C-----52  C-----52  0.390284E+00
    C-----52  C-----53  0.152302E+00
    C-----53  C-----53  0.609209E+00
    C-----53  C-----54  0.201930E+00
    C-----54  C-----54  0.807721E+00
    C-----54  C-----55  0.244959E+00
    C-----55  C-----55  0.979835E+00
    C-----55  C-----56  0.196572E+00
    C-----56  C-----56  0.786288E+00
    C-----56  C-----57  0.474682E-01
    C-----57  C-----57  0.189873E+00
    C-----57  C-----58  0.117475E+00
    C-----58  C-----58  0.469902E+00
    C-----58  C-----59  0.235511E+00
    C-----59  C-----59  0.942043E+00
    C-----59  C-----60  0.230473E+00
    C-----60  C-----60  0.921892E+00
ENDATA
